data/instances/vrp_files/train_54.vrp
NAME : 54
COMMENT : Generated instance No. 54
TYPE : CVRP
DIMENSION : 21
EDGE_WEIGHT_TYPE : EUC_2D
CAPACITY : 30
NODE_COORD_SECTION
 1 301 502
 2 62 458
 3 732 606
 4 672 81
 5 951 838
 6 805 822
 7 932 544
 8 200 616
 9 742 737
 10 521 68
 11 371 920
 12 584 538
 13 268 368
 14 895 666
 15 787 454
 16 630 248
 17 705 427
 18 442 649
 19 936 64
 20 824 292
 21 443 21
DEMAND_SECTION
1 0
2 6
3 8
4 4
5 1
6 7
7 3
8 6
9 2
10 9
11 1
12 6
13 6
14 5
15 5
16 1
17 10
18 5
19 2
20 7
21 3
DEPOT_SECTION
 1
 -1
EOF